1793 1588 10 0 1439
667 1740 1 1402 1413
324 1405 1 595 636
1248 592 4 656 730
1289 566 1 612 690
525 1307 3 2 42
1482 1950 2 627 734
2082 1210 3 1293 1382
2245 144 4 261 271
374 2298 2 1095 1136
475 1296 3 595 690
